NAME : LC1_6_8
TYPE : PDPTW
DIMENSION : 150
EDGE_WEIGHT_TYPE : EXACT_2D
NODE_COORD_SECTION
1 1 0
2 150 0
3 0 0
4 20 217
5 46 2
6 451 740
7 3 229
8 422 90
9 214 156
10 90 442
11 260 -20
12 413 0
13 -10 175
14 0 7
15 163 398
16 8 85
17 1069 90
18 105 230
19 90 0
20 111 30
21 0 202
22 -20 1041
23 0 12
24 528 798
25 13 143
26 330 90
27 173 233
28 90 0
29 24 20
30 0 488
31 10 177
32 443 17
33 471 714
34 18 141
35 339 90
36 100 73
37 90 0
38 70 30
39 0 62
40 10 189
41 380 22
42 337 561
43 23 129
44 729 0
45 62 65
46 0 0
47 239 10
48 0 467
49 40 469
50 220 27
51 598 899
52 28 203
53 367 90
54 251 241
55 90 0
56 110 20
57 0 332
58 10 93
59 149 32
60 755 1003
61 33 145
62 637 90
63 121 170
64 90 0
65 141 20
66 0 93
67 -30 278
68 0 37
69 637 833
70 38 122
71 653 90
72 119 267
73 90 440
74 113 -40
75 45 0
76 -20 571
77 0 42
78 116 402
79 43 157
80 1287 90
81 73 226
82 90 0
83 109 40
84 0 40
85 -20 762
86 0 47
87 54 281
88 48 31
89 819 90
90 10 147
91 90 0
92 176 20
93 0 633
94 20 135
95 115 52
96 125 341
97 53 119
98 550 90
99 220 74
100 90 347
101 175 -20
102 399 0
103 -30 570
104 0 57
105 135 354
106 58 61
107 593 90
108 140 143
109 90 0
110 125 -10
111 47 0
112 20 38
113 64 62
114 694 973
115 63 103
116 384 90
117 71 154
118 90 61
119 27 20
120 0 608
121 -10 706
122 0 67
123 451 683
124 68 108
125 360 90
126 86 230
127 90 0
128 221 10
129 0 397
130 10 72
131 468 72
132 243 552
133 73 151
134 509 90
135 83 30
136 90 0
137 184 20
138 0 127
139 10 48
140 118 77
141 466 734
142 78 263
143 703 90
144 259 59
145 90 0
146 26 -20
147 466 0
148 -10 915
149 0 82
150 574 873
PICKUP_AND_DELIVERY_SECTION
1 0 0 0 0 0 0
2 0 0 0 0 1496 0
3 0 0 0 0 0 17
4 0 0 0 0 90 90
5 0 0 0 0 254 254
6 0 0 0 0 226 226
7 0 0 0 0 -20 -20
8 0 0 0 0 0 0
9 0 0 0 0 614 614
10 0 0 0 0 5 0
11 0 0 0 0 496 496
12 0 0 0 0 29 29
13 0 0 0 0 90 90
14 0 0 0 0 277 277
15 0 0 0 0 0 0
16 0 0 0 0 -20 -20
17 0 0 0 0 0 0
18 0 0 0 0 91 91
19 0 0 0 0 10 10
20 0 0 0 0 296 296
21 0 0 0 0 65 65
22 0 0 0 0 90 90
23 0 0 0 0 233 233
24 0 0 0 0 325 325
25 0 0 0 0 20 20
26 0 0 0 0 181 0
27 0 0 0 0 532 532
28 0 0 0 0 15 15
29 0 0 0 0 654 654
30 0 0 0 0 277 277
31 0 0 0 0 90 90
32 0 0 0 0 105 105
33 0 0 0 0 421 421
34 0 0 0 0 30 30
35 0 0 0 0 313 0
36 0 0 0 0 138 138
37 0 0 0 0 20 20
38 0 0 0 0 291 291
39 0 0 0 0 161 161
40 0 0 0 0 90 90
41 0 0 0 0 280 280
42 0 0 0 0 0 0
43 0 0 0 0 20 20
44 0 0 0 0 616 0
45 0 0 0 0 845 845
46 0 0 0 0 25 25
47 0 0 0 0 729 729
48 0 0 0 0 9 9
49 0 0 0 0 90 90
50 0 0 0 0 228 228
51 0 0 0 0 14 14
52 0 0 0 0 20 20
53 0 0 0 0 571 0
54 0 0 0 0 156 156
55 0 0 0 0 30 30
56 0 0 0 0 554 554
57 0 0 0 0 106 106
58 0 0 0 0 90 90
59 0 0 0 0 102 102
60 0 0 0 0 0 0
61 0 0 0 0 10 10
62 0 0 0 0 529 0
63 0 0 0 0 454 454
64 0 0 0 0 35 35
65 0 0 0 0 584 584
66 0 0 0 0 167 167
67 0 0 0 0 90 90
68 0 0 0 0 229 229
69 0 0 0 0 337 337
70 0 0 0 0 10 10
71 0 0 0 0 316 0
72 0 0 0 0 547 547
73 0 0 0 0 40 0
74 0 0 0 0 881 881
75 0 0 0 0 257 257
76 0 0 0 0 90 90
77 0 0 0 0 266 266
78 0 0 0 0 0 0
79 0 0 0 0 -10 -10
80 0 0 0 0 0 0
81 0 0 0 0 108 108
82 0 0 0 0 45 45
83 0 0 0 0 370 370
84 0 0 0 0 12 12
85 0 0 0 0 90 90
86 0 0 0 0 126 126
87 0 0 0 0 0 0
88 0 0 0 0 -10 -10
89 0 0 0 0 0 0
90 0 0 0 0 300 300
91 0 0 0 0 50 50
92 0 0 0 0 401 401
93 0 0 0 0 277 277
94 0 0 0 0 90 90
95 0 0 0 0 232 232
96 0 0 0 0 0 0
97 0 0 0 0 20 20
98 0 0 0 0 448 0
99 0 0 0 0 749 749
100 0 0 0 0 55 0
101 0 0 0 0 542 542
102 0 0 0 0 144 144
103 0 0 0 0 90 90
104 0 0 0 0 285 285
105 0 0 0 0 0 0
106 0 0 0 0 -10 -10
107 0 0 0 0 0 0
108 0 0 0 0 12 12
109 0 0 0 0 60 60
110 0 0 0 0 444 444
111 0 0 0 0 114 114
112 0 0 0 0 90 90
113 0 0 0 0 80 80
114 0 0 0 0 20 20
115 0 0 0 0 -10 -10
116 0 0 0 0 0 0
117 0 0 0 0 789 789
118 0 0 0 0 65 0
119 0 0 0 0 526 526
120 0 0 0 0 67 67
121 0 0 0 0 90 90
122 0 0 0 0 132 132
123 0 0 0 0 196 196
124 0 0 0 0 10 10
125 0 0 0 0 223 0
126 0 0 0 0 102 102
127 0 0 0 0 70 70
128 0 0 0 0 1184 1184
129 0 0 0 0 116 116
130 0 0 0 0 90 90
131 0 0 0 0 28 28
132 0 0 0 0 370 370
133 0 0 0 0 -10 -10
134 0 0 0 0 0 0
135 0 0 0 0 449 449
136 0 0 0 0 75 75
137 0 0 0 0 322 322
138 0 0 0 0 141 141
139 0 0 0 0 90 90
140 0 0 0 0 156 156
141 0 0 0 0 0 0
142 0 0 0 0 10 10
143 0 0 0 0 281 0
144 0 0 0 0 464 464
145 0 0 0 0 80 80
146 0 0 0 0 1068 1068
147 0 0 0 0 59 59
148 0 0 0 0 90 90
149 0 0 0 0 4 4
150 0 0 0 0 19 19
DEPOT_SECTION
1 
-1
EOF
